set T := 1 2 3 4;
set C := 1 2 3;

param w :=
1 18
2 15
3 23
4 12;

param v :=
1 480
2 650
3 580
4 390;

param p :=
1 310
2 380
3 350
4 285;

param W :=
1 10 
2 16
3 8;

param V :=
1 6800
2 8700 
3 5300;


